20
-1 -1 -1 86 15 -1 -1 -1 -1 45 -1 35 -1 -1 -1 -1 -1 -1 -1 55
-1 -1 -1 27 21 -1 -1 -1 -1 -1 78 -1 -1 1 -1 -1 27 -1 -1 -1
-1 -1 -1 -1 58 -1 -1 70 36 -1 26 29 -1 68 -1 -1 -1 83 -1 -1
86 27 -1 -1 -1 -1 70 -1 -1 35 23 30 -1 -1 -1 -1 -1 -1 -1 -1
15 21 58 -1 -1 -1 -1 -1 57 67 8 99 86 -1 -1 -1 -1 -1 42 56
-1 -1 -1 -1 -1 -1 73 -1 37 19 51 -1 -1 92 -1 24 -1 -1 -1 -1
-1 -1 -1 70 -1 73 -1 -1 73 -1 -1 -1 -1 -1 -1 80 -1 -1 -1 -1
-1 -1 70 -1 -1 -1 -1 -1 -1 -1 27 81 -1 25 -1 -1 -1 -1 -1 -1
-1 -1 36 -1 57 37 73 -1 -1 -1 -1 -1 95 -1 29 -1 65 -1 -1 51
45 -1 -1 35 67 19 -1 -1 -1 -1 50 -1 -1 -1 80 64 -1 -1 49 23
-1 78 26 23 8 51 -1 27 -1 50 -1 12 -1 56 -1 -1 -1 71 -1 -1
35 -1 29 30 99 -1 -1 81 -1 -1 12 -1 -1 -1 -1 -1 68 -1 19 -1
-1 -1 -1 -1 86 -1 -1 -1 95 -1 -1 -1 -1 -1 70 -1 56 39 15 -1
-1 1 68 -1 -1 92 -1 25 -1 -1 56 -1 -1 -1 -1 -1 -1 2 -1 -1
-1 -1 -1 -1 -1 -1 -1 -1 29 80 -1 -1 70 -1 -1 -1 41 19 -1 -1
-1 -1 -1 -1 -1 24 80 -1 -1 64 -1 -1 -1 -1 -1 -1 -1 -1 17 -1
-1 27 -1 -1 -1 -1 -1 -1 65 -1 -1 68 56 -1 41 -1 -1 -1 68 -1
-1 -1 83 -1 -1 -1 -1 -1 -1 -1 71 -1 39 2 19 -1 -1 -1 -1 45
-1 -1 -1 -1 42 -1 -1 -1 -1 49 -1 19 15 -1 -1 17 68 -1 -1 -1
55 -1 -1 -1 56 -1 -1 -1 51 23 -1 -1 -1 -1 -1 -1 -1 45 -1 -1